
<<< setup


<<< generate

Version identifier: 12.10.0.0 | 2019-11-26 | 843d4de2ae
CPXPARAM_TimeLimit                               1200
Tried aggregator 2 times.
MIP Presolve eliminated 5191584 rows and 2958389 columns.
MIP Presolve modified 420088 coefficients.
Aggregator did 1162 substitutions.
Reduced MIP has 57904 rows, 59499 columns, and 361498 nonzeros.
Reduced MIP has 59451 binaries, 0 generals, 0 SOSs, and 0 indicators.
Presolve time = 6.36 sec. (3742.86 ticks)
Found incumbent of value 0.000000 after 9.91 sec. (4820.43 ticks)
Probing fixed 2278 vars, tightened 0 bounds.
Probing time = 7.25 sec. (1541.56 ticks)
Tried aggregator 2 times.
Detecting symmetries...
MIP Presolve eliminated 2006 rows and 2278 columns.
Aggregator did 1 substitutions.
Reduced MIP has 55897 rows, 57220 columns, and 348317 nonzeros.
Reduced MIP has 57172 binaries, 0 generals, 0 SOSs, and 0 indicators.
Presolve time = 0.48 sec. (241.53 ticks)
Probing fixed 68 vars, tightened 0 bounds.
Probing time = 1.94 sec. (351.13 ticks)
Clique table members: 202230.
MIP emphasis: balance optimality and feasibility.
MIP search method: dynamic search.
Parallel mode: deterministic, using up to 4 threads.
Root relaxation solution time = 6.81 sec. (3729.67 ticks)

        Nodes                                         Cuts/
   Node  Left     Objective  IInf  Best Integer    Best Bound    ItCnt     Gap

*     0+    0                            0.0000   149785.0000              --- 
      0     0   149785.0000  1111        0.0000   149785.0000    12645     --- 
      0     0   149785.0000  1111        0.0000     Cuts: 267    25840     --- 
      0     0   149785.0000  1111        0.0000     Cuts: 900    35893     --- 
      0     0   149785.0000  1111        0.0000    Cuts: 7971    52103     --- 
Heuristic still looking.
Heuristic still looking.
      0     2   149785.0000  1098        0.0000   149785.0000    69854     --- 
Elapsed time = 493.69 sec. (292587.61 ticks, tree = 0.02 MB, solutions = 1)
      1     3   149785.0000   751        0.0000   149785.0000    85834     --- 
      2     2   149785.0000   930        0.0000   149785.0000    88929     --- 
      3     4   149785.0000   887        0.0000   149785.0000   100059     --- 
      4     4   149785.0000  1020        0.0000   149785.0000    95622     --- 
      5     5   149785.0000   894        0.0000   149785.0000   113641     --- 
      6     7   149785.0000   950        0.0000   149785.0000   129840     --- 
      8     3   149785.0000   961        0.0000   149785.0000   102813     --- 
     10     6   149785.0000  1008        0.0000   149785.0000   130430     --- 
     11    10   149785.0000   991        0.0000   149785.0000   198393     --- 
     15    11   149785.0000   943        0.0000   149785.0000   201477     --- 
Elapsed time = 574.66 sec. (329074.67 ticks, tree = 0.11 MB, solutions = 1)
     24    11   149785.0000   943        0.0000   149785.0000   201479     --- 
     32     5   149785.0000   805        0.0000   149785.0000   115756     --- 
     33     9   149785.0000   952        0.0000   149785.0000   198612     --- 
     38    10   149785.0000  1146        0.0000   149785.0000   216204     --- 
     41    10   149785.0000   969        0.0000   149785.0000   200361     --- 
     43    13   149785.0000  1124        0.0000   149785.0000   227592     --- 
     46    14   149785.0000   988        0.0000   149785.0000   227959     --- 
     49    10   149785.0000  1254        0.0000   149785.0000   207570     --- 
     51     9   149785.0000  1123        0.0000   149785.0000   220510     --- 
     56    14   149785.0000  1035        0.0000   149785.0000   256200     --- 
Elapsed time = 641.50 sec. (353499.21 ticks, tree = 0.98 MB, solutions = 1)
     61    13   149785.0000  1066        0.0000   149785.0000   230328     --- 
     64    18   149785.0000  1120        0.0000   149785.0000   294423     --- 
     70    18   149785.0000  1058        0.0000   149785.0000   294994     --- 
     73    13   149785.0000  1147        0.0000   149785.0000   258758     --- 
     74    13   149785.0000  1041        0.0000   149785.0000   268679     --- 
     75    19   149785.0000  1057        0.0000   149785.0000   311561     --- 
     79    18   149785.0000   891        0.0000   149785.0000   320344     --- 
     81    18   149785.0000   933        0.0000   149785.0000   323681     --- 
     85    19   149785.0000  1134        0.0000   149785.0000   325501     --- 
     86    16    infeasible              0.0000   149785.0000   355088     --- 
Elapsed time = 723.86 sec. (382128.27 ticks, tree = 1.42 MB, solutions = 1)
     88    16    infeasible              0.0000   149785.0000   354703     --- 
     89    19    infeasible              0.0000   149785.0000   400402     --- 
     94    17   149785.0000  1005        0.0000   149785.0000   425655     --- 
     95    18    infeasible              0.0000   149785.0000   398027     --- 
     96    18   149785.0000   950        0.0000   149785.0000   427628     --- 
    107    17   149785.0000  1126        0.0000   149785.0000   448732     --- 
    108    18   149785.0000  1075        0.0000   149785.0000   449712     --- 
    117    16    infeasible              0.0000   149785.0000   430453     --- 
    118    15    infeasible              0.0000   149785.0000   422375     --- 
    119    17   149785.0000  1030        0.0000   149785.0000   431317     --- 
Elapsed time = 829.75 sec. (414488.98 ticks, tree = 1.86 MB, solutions = 1)
    122    14   149785.0000  1296        0.0000   149785.0000   467394     --- 
    124    13   149785.0000  1211        0.0000   149785.0000   482558     --- 
    127    15   149785.0000  1120        0.0000   149785.0000   478440     --- 
    129    14   149785.0000  1038        0.0000   149785.0000   451035     --- 
    133    15   149785.0000  1001        0.0000   149785.0000   479857     --- 
    137    14   149785.0000  1020        0.0000   149785.0000   521353     --- 
    148    14   149785.0000  1007        0.0000   149785.0000   522051     --- 
    152    14   149785.0000   956        0.0000   149785.0000   522664     --- 
    156    14   149785.0000   986        0.0000   149785.0000   523159     --- 
    161    14   149785.0000  1275        0.0000   149785.0000   495863     --- 
Elapsed time = 907.03 sec. (443470.91 ticks, tree = 0.50 MB, solutions = 1)
    163    12   149785.0000  1086        0.0000   149785.0000   516597     --- 
    165    11   149785.0000  1026        0.0000   149785.0000   526987     --- 
    167    14   149785.0000  1138        0.0000   149785.0000   496290     --- 
    169    10   149785.0000   997        0.0000   149785.0000   545944     --- 
    170    11   149785.0000  1059        0.0000   149785.0000   552653     --- 
    180    11   149785.0000  1154        0.0000   149785.0000   550968     --- 
    184    15   149785.0000  1223        0.0000   149785.0000   494931     --- 
    193    12   149785.0000  1056        0.0000   149785.0000   565109     --- 
    196    13   149785.0000   980        0.0000   149785.0000   567007     --- 
    205    10   149785.0000  1101        0.0000   149785.0000   624224     --- 
Elapsed time = 970.13 sec. (470305.96 ticks, tree = 0.14 MB, solutions = 1)
    208     9   149785.0000  1137        0.0000   149785.0000   608837     --- 
    209    10   149785.0000  1272        0.0000   149785.0000   619142     --- 
    210    11   149785.0000  1362        0.0000   149785.0000   585501     --- 
    216    11   149785.0000  1281        0.0000   149785.0000   637536     --- 
    225     7   149785.0000  1541        0.0000   149785.0000   611428     --- 
    229     7   149785.0000  1368        0.0000   149785.0000   612020     --- 
    232     8   149785.0000  1084        0.0000   149785.0000   646853     --- 
    234    10   149785.0000  1040        0.0000   149785.0000   688760     --- 
    235     7   149785.0000  1209        0.0000   149785.0000   613326     --- 
    242     7   149785.0000  1150        0.0000   149785.0000   613815     --- 
Elapsed time = 1031.56 sec. (497157.81 ticks, tree = 0.02 MB, solutions = 1)
    250    13   149785.0000   987        0.0000   149785.0000   691144     --- 
    253    14   149785.0000   953        0.0000   149785.0000   691960     --- 
    257    14   149785.0000   996        0.0000   149785.0000   692588     --- 
    262    12   149785.0000   870        0.0000   149785.0000   703315     --- 
    268    15   149785.0000   981        0.0000   149785.0000   729009     --- 
    277    15   149785.0000   955        0.0000   149785.0000   729647     --- 
    282    16   149785.0000   924        0.0000   149785.0000   730103     --- 
    290    12   149785.0000  1149        0.0000   149785.0000   726940     --- 
    293    12   149785.0000  1056        0.0000   149785.0000   727467     --- 
    296    13   149785.0000  1009        0.0000   149785.0000   728864     --- 
Elapsed time = 1058.75 sec. (510971.92 ticks, tree = 0.12 MB, solutions = 1)
    298    13   149785.0000   948        0.0000   149785.0000   729578     --- 
    304    15   149785.0000   965        0.0000   149785.0000   730177     --- 
    312    15   149785.0000   886        0.0000   149785.0000   730605     --- 
    315    12   149785.0000  1068        0.0000   149785.0000   707611     --- 
    316    13   149785.0000   954        0.0000   149785.0000   708686     --- 
    317    14   149785.0000   994        0.0000   149785.0000   740218     --- 
    318    15   149785.0000   977        0.0000   149785.0000   740825     --- 
    319    16   149785.0000  1004        0.0000   149785.0000   741843     --- 
    325    17   149785.0000   971        0.0000   149785.0000   742523     --- 
    331    17   149785.0000   923        0.0000   149785.0000   743019     --- 
Elapsed time = 1099.44 sec. (528169.37 ticks, tree = 0.14 MB, solutions = 1)
    332    13   149785.0000   954        0.0000   149785.0000   744887     --- 
    335    16   149785.0000   904        0.0000   149785.0000   758432     --- 
    336    20   149785.0000   869        0.0000   149785.0000   747276     --- 
    342    20   149785.0000   885        0.0000   149785.0000   747941     --- 
    345    12   149785.0000  1170        0.0000   149785.0000   772042     --- 
    353    13   149785.0000   871        0.0000   149785.0000   749085     --- 
    362    14   149785.0000   930        0.0000   149785.0000   733545     --- 
Starting limited solution polishing.
    363    18   149785.0000  1094        0.0000   149785.0000   809663     --- 
    364    19   149785.0000   974        0.0000   149785.0000   810906     --- 
    369    17   149785.0000   956        0.0000   149785.0000   780178     --- 
Elapsed time = 1149.11 sec. (548844.13 ticks, tree = 0.19 MB, solutions = 1)
    374    11   149785.0000  1212        0.0000   149785.0000   775826     --- 
    380    16    infeasible              0.0000   149785.0000   814000     --- 

Clique cuts applied:  1
Implied bound cuts applied:  5683
Flow cuts applied:  89
Mixed integer rounding cuts applied:  20

Root node processing (before b&c):
  Real time             =  467.52 sec. (273151.34 ticks)
Parallel b&c, 4 threads:
  Real time             =  732.98 sec. (296764.15 ticks)
  Sync time (average)   =   93.37 sec.
  Wait time (average)   =    0.00 sec.
                          ------------
Total (root+branch&cut) = 1200.50 sec. (569915.49 ticks)

<<< solve


OBJECTIVE: 0

<<< post process


<<< done

